\ Model SSLP_10_50_2000
\ LP format - for model browsing. Use MPS format to capture full model detail.
Minimize
  40 x_1 + 47 x_2 + 59 x_3 + 64 x_4 + 44 x_5 + 55 x_6 + 44 x_7 + 46 x_8
   + 70 x_9 + 49 x_10 - 13 y_1_2 - 2 y_1_3 - 10 y_1_4 - 10 y_1_5 - 14 y_1_6
   - 5 y_1_7 - 2 y_1_8 - 9 y_1_9 - y_1_10 - 3 y_2_1 - 22 y_2_2 - 20 y_2_3
   - y_2_4 - 10 y_2_5 - 19 y_2_6 - 11 y_2_7 - 11 y_2_8 - 16 y_2_9
   - 16 y_2_10 - 3 y_3_1 - 17 y_3_2 - 6 y_3_3 - 23 y_3_4 - 10 y_3_6
   - 10 y_3_7 - 2 y_3_8 - 9 y_3_9 - 5 y_3_10 - 25 y_4_1 - 12 y_4_2
   - 7 y_4_3 - 10 y_4_4 - 23 y_4_5 - 6 y_4_6 - 9 y_4_7 - 14 y_4_8
   - 19 y_4_9 - 20 y_4_10 - 16 y_5_1 - 9 y_5_2 - 20 y_5_3 - 9 y_5_4
   - 18 y_5_5 - 19 y_5_6 - 7 y_5_7 - 20 y_5_8 - 14 y_5_9 - 10 y_5_10
   - 18 y_6_1 - 9 y_6_2 - 15 y_6_3 - 7 y_6_4 - 10 y_6_5 - 18 y_6_6
   - 7 y_6_7 - 19 y_6_9 - 24 y_6_10 - 17 y_7_1 - y_7_2 - 9 y_7_3 - 6 y_7_4
   - 4 y_7_5 - 22 y_7_6 - 2 y_7_7 - 2 y_7_8 - 9 y_7_9 - 3 y_7_10 - 13 y_8_1
   - 16 y_8_2 - 14 y_8_3 - 12 y_8_4 - 6 y_8_5 - 8 y_8_6 - 21 y_8_7
   - 24 y_8_8 - 13 y_8_9 - 3 y_8_10 - 10 y_9_1 - 25 y_9_2 - 3 y_9_3
   - 16 y_9_4 - 16 y_9_5 - 12 y_9_6 - 19 y_9_7 - 8 y_9_8 - 11 y_9_9
   - 5 y_9_10 - 13 y_10_1 - y_10_2 - 3 y_10_3 - 7 y_10_4 - 14 y_10_5
   - 18 y_10_6 - 19 y_10_7 - 17 y_10_8 - 11 y_10_9 - 13 y_10_10 - 21 y_11_1
   - 3 y_11_2 - 21 y_11_3 - 14 y_11_4 - 16 y_11_5 - 24 y_11_6 - 19 y_11_7
   - y_11_8 - 14 y_11_9 - 14 y_11_10 - 17 y_12_1 - 11 y_12_2 - 6 y_12_3
   - 23 y_12_4 - 22 y_12_5 - 16 y_12_6 - 9 y_12_8 - 2 y_12_9 - 10 y_12_10
   - 13 y_13_1 - 2 y_13_2 - 17 y_13_3 - 17 y_13_4 - 21 y_13_5 - 13 y_13_6
   - 23 y_13_7 - 23 y_13_8 - 7 y_13_9 - 14 y_13_10 - 4 y_14_1 - 9 y_14_2
   - 20 y_14_3 - 25 y_14_4 - 25 y_14_5 - 3 y_14_6 - 11 y_14_7 - 10 y_14_8
   - 23 y_14_10 - 23 y_15_1 - 22 y_15_2 - 3 y_15_4 - 6 y_15_5 - 20 y_15_6
   - 8 y_15_7 - 17 y_15_8 - 23 y_15_9 - 13 y_15_10 - 10 y_16_2 - 15 y_16_3
   - 16 y_16_4 - 10 y_16_5 - 10 y_16_6 - 16 y_16_7 - 20 y_16_8 - 18 y_16_9
   - 13 y_16_10 - 24 y_17_1 - 2 y_17_2 - 17 y_17_3 - 11 y_17_4 - 19 y_17_5
   - 10 y_17_6 - 25 y_17_7 - 13 y_17_8 - 14 y_17_9 - 7 y_17_10 - 21 y_18_1
   - 14 y_18_2 - 10 y_18_3 - 17 y_18_4 - 16 y_18_5 - 3 y_18_6 - 15 y_18_7
   - 6 y_18_8 - y_18_9 - 7 y_18_10 - 2 y_19_1 - 23 y_19_2 - 24 y_19_3
   - 9 y_19_4 - 22 y_19_5 - 21 y_19_6 - 7 y_19_7 - 22 y_19_8 - 19 y_19_9
   - 13 y_19_10 - 21 y_20_1 - 20 y_20_2 - y_20_3 - 19 y_20_4 - 18 y_20_5
   - 23 y_20_6 - 17 y_20_7 - 13 y_20_8 - 16 y_20_9 - 16 y_20_10 - 17 y_21_1
   - 23 y_21_2 - 10 y_21_3 - 18 y_21_4 - y_21_5 - 25 y_21_6 - 10 y_21_7
   - 4 y_21_8 - 15 y_21_9 - 17 y_21_10 - 23 y_22_1 - 3 y_22_2 - 22 y_22_3
   - 22 y_22_4 - 3 y_22_5 - 24 y_22_6 - 10 y_22_7 - 11 y_22_8 - 3 y_22_9
   - 22 y_22_10 - 24 y_23_1 - 13 y_23_2 - 2 y_23_3 - 20 y_23_4 - 19 y_23_5
   - 25 y_23_6 - 9 y_23_7 - 24 y_23_8 - 5 y_23_9 - 23 y_23_10 - 12 y_24_1
   - 9 y_24_3 - 15 y_24_4 - 5 y_24_5 - 7 y_24_6 - 10 y_24_7 - 11 y_24_8
   - 24 y_24_9 - 13 y_24_10 - 15 y_25_1 - 12 y_25_2 - y_25_3 - 24 y_25_4
   - 2 y_25_5 - 4 y_25_6 - 11 y_25_7 - 15 y_25_8 - 10 y_25_9 - 4 y_25_10
   - 10 y_26_2 - 17 y_26_3 - 2 y_26_4 - 25 y_26_5 - 5 y_26_6 - 12 y_26_7
   - 3 y_26_8 - 20 y_26_9 - 10 y_27_1 - 15 y_27_2 - 22 y_27_3 - 20 y_27_4
   - 10 y_27_5 - 12 y_27_6 - 24 y_27_7 - 7 y_27_8 - 15 y_27_9 - 23 y_27_10
   - 18 y_28_1 - 4 y_28_2 - 21 y_28_3 - 24 y_28_4 - 22 y_28_5 - 19 y_28_6
   - 2 y_28_7 - 24 y_28_8 - 17 y_28_9 - 6 y_28_10 - y_29_1 - 16 y_29_2
   - 8 y_29_3 - 14 y_29_4 - 18 y_29_5 - 19 y_29_6 - 22 y_29_7 - 5 y_29_8
   - 13 y_29_9 - 9 y_29_10 - 16 y_30_1 - 14 y_30_2 - 22 y_30_3 - 21 y_30_4
   - 23 y_30_6 - 11 y_30_7 - 16 y_30_8 - 17 y_30_9 - 22 y_30_10 - 6 y_31_1
   - 20 y_31_2 - 23 y_31_3 - 19 y_31_4 - 17 y_31_5 - 6 y_31_6 - 3 y_31_7
   - 16 y_31_8 - 19 y_31_9 - 21 y_31_10 - 8 y_32_1 - 14 y_32_2 - 16 y_32_3
   - 11 y_32_4 - 17 y_32_5 - 17 y_32_6 - 12 y_32_7 - 18 y_32_8 - 20 y_32_9
   - 22 y_32_10 - 6 y_33_1 - 22 y_33_2 - 18 y_33_3 - 8 y_33_4 - 20 y_33_5
   - 13 y_33_6 - 19 y_33_7 - 19 y_33_8 - 7 y_33_9 - 2 y_33_10 - 16 y_34_1
   - 13 y_34_2 - 14 y_34_3 - 21 y_34_4 - 13 y_34_5 - 14 y_34_6 - 14 y_34_7
   - 10 y_34_8 - 19 y_34_9 - 23 y_34_10 - 13 y_35_1 - 19 y_35_2 - 18 y_35_3
   - 23 y_35_4 - 9 y_35_5 - 23 y_35_6 - 2 y_35_7 - 4 y_35_8 - 23 y_35_9
   - 8 y_35_10 - 17 y_36_1 - 19 y_36_2 - 2 y_36_3 - 17 y_36_4 - 5 y_36_5
   - 3 y_36_6 - 21 y_36_7 - 18 y_36_8 - 20 y_36_9 - 14 y_36_10 - 18 y_37_1
   - 17 y_37_2 - 11 y_37_3 - 17 y_37_4 - 4 y_37_5 - 4 y_37_6 - 7 y_37_7
   - 13 y_37_8 - 22 y_37_9 - 12 y_37_10 - 3 y_38_1 - 25 y_38_2 - 9 y_38_3
   - 3 y_38_4 - 24 y_38_5 - 7 y_38_6 - 15 y_38_7 - 13 y_38_8 - 18 y_38_9
   - 15 y_38_10 - 12 y_39_1 - 12 y_39_2 - 4 y_39_3 - 4 y_39_4 - 11 y_39_5
   - 18 y_39_6 - 12 y_39_7 - y_39_8 - 6 y_39_9 - 3 y_39_10 - 16 y_40_1
   - 2 y_40_2 - 13 y_40_3 - 6 y_40_4 - 24 y_40_5 - y_40_6 - 9 y_40_7
   - 10 y_40_8 - 19 y_40_9 - 7 y_40_10 - 2 y_41_1 - 10 y_41_2 - 17 y_41_3
   - 11 y_41_4 - 19 y_41_5 - 18 y_41_6 - 23 y_41_7 - 8 y_41_8 - 17 y_41_9
   - 10 y_41_10 - 2 y_42_1 - 19 y_42_2 - 4 y_42_3 - 11 y_42_4 - 17 y_42_5
   - 25 y_42_6 - 20 y_42_7 - 21 y_42_8 - 6 y_42_9 - 5 y_42_10 - 20 y_43_1
   - 17 y_43_2 - 13 y_43_3 - 21 y_43_4 - 15 y_43_5 - 11 y_43_6 - 7 y_43_7
   - 10 y_43_8 - 21 y_43_9 - 11 y_43_10 - 8 y_44_1 - y_44_2 - 16 y_44_3
   - 22 y_44_4 - 8 y_44_5 - y_44_6 - 17 y_44_7 - 19 y_44_8 - 5 y_44_9
   - 6 y_44_10 - 22 y_45_1 - 20 y_45_2 - 23 y_45_3 - 14 y_45_4 - 13 y_45_5
   - 22 y_45_6 - 12 y_45_7 - 21 y_45_8 - 16 y_45_9 - 20 y_45_10 - 12 y_46_1
   - 22 y_46_2 - 17 y_46_3 - 20 y_46_4 - 13 y_46_5 - 23 y_46_6 - 19 y_46_7
   - 24 y_46_8 - 22 y_46_9 - 20 y_46_10 - 24 y_47_1 - 19 y_47_2 - y_47_3
   - 18 y_47_4 - 3 y_47_5 - 17 y_47_6 - 4 y_47_7 - 17 y_47_8 - 18 y_47_9
   - 22 y_47_10 - 7 y_48_1 - 2 y_48_2 - 17 y_48_3 - 18 y_48_4 - 9 y_48_5
   - y_48_6 - 13 y_48_7 - 22 y_48_8 - 13 y_48_9 - 24 y_48_10 - 13 y_49_1
   - 7 y_49_2 - 11 y_49_3 - 16 y_49_4 - 20 y_49_5 - 8 y_49_6 - 11 y_49_7
   - 2 y_49_8 - 25 y_49_9 - 6 y_49_10 - 11 y_50_1 - 9 y_50_2 - 13 y_50_3
   - y_50_4 - 20 y_50_5 - 23 y_50_6 - 24 y_50_7 - 11 y_50_8 - 15 y_50_9
   - 10 y_50_10 + 1000 x_1_0 + 1000 x_2_0 + 1000 x_3_0 + 1000 x_4_0
   + 1000 x_5_0 + 1000 x_6_0 + 1000 x_7_0 + 1000 x_8_0 + 1000 x_9_0
   + 1000 x_10_0
Subject To
 c1: - x_1 - x_2 - x_3 - x_4 - x_5 - x_6 - x_7 - x_8 - x_9 - x_10 >= -10
 c2: 188 x_1 - 3 y_2_1 - 3 y_3_1 - 25 y_4_1 - 16 y_5_1 - 18 y_6_1
   - 17 y_7_1 - 13 y_8_1 - 10 y_9_1 - 13 y_10_1 - 21 y_11_1 - 17 y_12_1
   - 13 y_13_1 - 4 y_14_1 - 23 y_15_1 - 24 y_17_1 - 21 y_18_1 - 2 y_19_1
   - 21 y_20_1 - 17 y_21_1 - 23 y_22_1 - 24 y_23_1 - 12 y_24_1 - 15 y_25_1
   - 10 y_27_1 - 18 y_28_1 - y_29_1 - 16 y_30_1 - 6 y_31_1 - 8 y_32_1
   - 6 y_33_1 - 16 y_34_1 - 13 y_35_1 - 17 y_36_1 - 18 y_37_1 - 3 y_38_1
   - 12 y_39_1 - 16 y_40_1 - 2 y_41_1 - 2 y_42_1 - 20 y_43_1 - 8 y_44_1
   - 22 y_45_1 - 12 y_46_1 - 24 y_47_1 - 7 y_48_1 - 13 y_49_1 - 11 y_50_1
   + x_1_0 >= 0
 c3: 188 x_2 - 13 y_1_2 - 22 y_2_2 - 17 y_3_2 - 12 y_4_2 - 9 y_5_2
   - 9 y_6_2 - y_7_2 - 16 y_8_2 - 25 y_9_2 - y_10_2 - 3 y_11_2 - 11 y_12_2
   - 2 y_13_2 - 9 y_14_2 - 22 y_15_2 - 10 y_16_2 - 2 y_17_2 - 14 y_18_2
   - 23 y_19_2 - 20 y_20_2 - 23 y_21_2 - 3 y_22_2 - 13 y_23_2 - 12 y_25_2
   - 10 y_26_2 - 15 y_27_2 - 4 y_28_2 - 16 y_29_2 - 14 y_30_2 - 20 y_31_2
   - 14 y_32_2 - 22 y_33_2 - 13 y_34_2 - 19 y_35_2 - 19 y_36_2 - 17 y_37_2
   - 25 y_38_2 - 12 y_39_2 - 2 y_40_2 - 10 y_41_2 - 19 y_42_2 - 17 y_43_2
   - y_44_2 - 20 y_45_2 - 22 y_46_2 - 19 y_47_2 - 2 y_48_2 - 7 y_49_2
   - 9 y_50_2 + x_2_0 >= 0
 c4: 188 x_3 - 2 y_1_3 - 20 y_2_3 - 6 y_3_3 - 7 y_4_3 - 20 y_5_3 - 15 y_6_3
   - 9 y_7_3 - 14 y_8_3 - 3 y_9_3 - 3 y_10_3 - 21 y_11_3 - 6 y_12_3
   - 17 y_13_3 - 20 y_14_3 - 15 y_16_3 - 17 y_17_3 - 10 y_18_3 - 24 y_19_3
   - y_20_3 - 10 y_21_3 - 22 y_22_3 - 2 y_23_3 - 9 y_24_3 - y_25_3
   - 17 y_26_3 - 22 y_27_3 - 21 y_28_3 - 8 y_29_3 - 22 y_30_3 - 23 y_31_3
   - 16 y_32_3 - 18 y_33_3 - 14 y_34_3 - 18 y_35_3 - 2 y_36_3 - 11 y_37_3
   - 9 y_38_3 - 4 y_39_3 - 13 y_40_3 - 17 y_41_3 - 4 y_42_3 - 13 y_43_3
   - 16 y_44_3 - 23 y_45_3 - 17 y_46_3 - y_47_3 - 17 y_48_3 - 11 y_49_3
   - 13 y_50_3 + x_3_0 >= 0
 c5: 188 x_4 - 10 y_1_4 - y_2_4 - 23 y_3_4 - 10 y_4_4 - 9 y_5_4 - 7 y_6_4
   - 6 y_7_4 - 12 y_8_4 - 16 y_9_4 - 7 y_10_4 - 14 y_11_4 - 23 y_12_4
   - 17 y_13_4 - 25 y_14_4 - 3 y_15_4 - 16 y_16_4 - 11 y_17_4 - 17 y_18_4
   - 9 y_19_4 - 19 y_20_4 - 18 y_21_4 - 22 y_22_4 - 20 y_23_4 - 15 y_24_4
   - 24 y_25_4 - 2 y_26_4 - 20 y_27_4 - 24 y_28_4 - 14 y_29_4 - 21 y_30_4
   - 19 y_31_4 - 11 y_32_4 - 8 y_33_4 - 21 y_34_4 - 23 y_35_4 - 17 y_36_4
   - 17 y_37_4 - 3 y_38_4 - 4 y_39_4 - 6 y_40_4 - 11 y_41_4 - 11 y_42_4
   - 21 y_43_4 - 22 y_44_4 - 14 y_45_4 - 20 y_46_4 - 18 y_47_4 - 18 y_48_4
   - 16 y_49_4 - y_50_4 + x_4_0 >= 0
 c6: 188 x_5 - 10 y_1_5 - 10 y_2_5 - 23 y_4_5 - 18 y_5_5 - 10 y_6_5
   - 4 y_7_5 - 6 y_8_5 - 16 y_9_5 - 14 y_10_5 - 16 y_11_5 - 22 y_12_5
   - 21 y_13_5 - 25 y_14_5 - 6 y_15_5 - 10 y_16_5 - 19 y_17_5 - 16 y_18_5
   - 22 y_19_5 - 18 y_20_5 - y_21_5 - 3 y_22_5 - 19 y_23_5 - 5 y_24_5
   - 2 y_25_5 - 25 y_26_5 - 10 y_27_5 - 22 y_28_5 - 18 y_29_5 - 17 y_31_5
   - 17 y_32_5 - 20 y_33_5 - 13 y_34_5 - 9 y_35_5 - 5 y_36_5 - 4 y_37_5
   - 24 y_38_5 - 11 y_39_5 - 24 y_40_5 - 19 y_41_5 - 17 y_42_5 - 15 y_43_5
   - 8 y_44_5 - 13 y_45_5 - 13 y_46_5 - 3 y_47_5 - 9 y_48_5 - 20 y_49_5
   - 20 y_50_5 + x_5_0 >= 0
 c7: 188 x_6 - 14 y_1_6 - 19 y_2_6 - 10 y_3_6 - 6 y_4_6 - 19 y_5_6
   - 18 y_6_6 - 22 y_7_6 - 8 y_8_6 - 12 y_9_6 - 18 y_10_6 - 24 y_11_6
   - 16 y_12_6 - 13 y_13_6 - 3 y_14_6 - 20 y_15_6 - 10 y_16_6 - 10 y_17_6
   - 3 y_18_6 - 21 y_19_6 - 23 y_20_6 - 25 y_21_6 - 24 y_22_6 - 25 y_23_6
   - 7 y_24_6 - 4 y_25_6 - 5 y_26_6 - 12 y_27_6 - 19 y_28_6 - 19 y_29_6
   - 23 y_30_6 - 6 y_31_6 - 17 y_32_6 - 13 y_33_6 - 14 y_34_6 - 23 y_35_6
   - 3 y_36_6 - 4 y_37_6 - 7 y_38_6 - 18 y_39_6 - y_40_6 - 18 y_41_6
   - 25 y_42_6 - 11 y_43_6 - y_44_6 - 22 y_45_6 - 23 y_46_6 - 17 y_47_6
   - y_48_6 - 8 y_49_6 - 23 y_50_6 + x_6_0 >= 0
 c8: 188 x_7 - 5 y_1_7 - 11 y_2_7 - 10 y_3_7 - 9 y_4_7 - 7 y_5_7 - 7 y_6_7
   - 2 y_7_7 - 21 y_8_7 - 19 y_9_7 - 19 y_10_7 - 19 y_11_7 - 23 y_13_7
   - 11 y_14_7 - 8 y_15_7 - 16 y_16_7 - 25 y_17_7 - 15 y_18_7 - 7 y_19_7
   - 17 y_20_7 - 10 y_21_7 - 10 y_22_7 - 9 y_23_7 - 10 y_24_7 - 11 y_25_7
   - 12 y_26_7 - 24 y_27_7 - 2 y_28_7 - 22 y_29_7 - 11 y_30_7 - 3 y_31_7
   - 12 y_32_7 - 19 y_33_7 - 14 y_34_7 - 2 y_35_7 - 21 y_36_7 - 7 y_37_7
   - 15 y_38_7 - 12 y_39_7 - 9 y_40_7 - 23 y_41_7 - 20 y_42_7 - 7 y_43_7
   - 17 y_44_7 - 12 y_45_7 - 19 y_46_7 - 4 y_47_7 - 13 y_48_7 - 11 y_49_7
   - 24 y_50_7 + x_7_0 >= 0
 c9: 188 x_8 - 2 y_1_8 - 11 y_2_8 - 2 y_3_8 - 14 y_4_8 - 20 y_5_8 - 2 y_7_8
   - 24 y_8_8 - 8 y_9_8 - 17 y_10_8 - y_11_8 - 9 y_12_8 - 23 y_13_8
   - 10 y_14_8 - 17 y_15_8 - 20 y_16_8 - 13 y_17_8 - 6 y_18_8 - 22 y_19_8
   - 13 y_20_8 - 4 y_21_8 - 11 y_22_8 - 24 y_23_8 - 11 y_24_8 - 15 y_25_8
   - 3 y_26_8 - 7 y_27_8 - 24 y_28_8 - 5 y_29_8 - 16 y_30_8 - 16 y_31_8
   - 18 y_32_8 - 19 y_33_8 - 10 y_34_8 - 4 y_35_8 - 18 y_36_8 - 13 y_37_8
   - 13 y_38_8 - y_39_8 - 10 y_40_8 - 8 y_41_8 - 21 y_42_8 - 10 y_43_8
   - 19 y_44_8 - 21 y_45_8 - 24 y_46_8 - 17 y_47_8 - 22 y_48_8 - 2 y_49_8
   - 11 y_50_8 + x_8_0 >= 0
 c10: 188 x_9 - 9 y_1_9 - 16 y_2_9 - 9 y_3_9 - 19 y_4_9 - 14 y_5_9
   - 19 y_6_9 - 9 y_7_9 - 13 y_8_9 - 11 y_9_9 - 11 y_10_9 - 14 y_11_9
   - 2 y_12_9 - 7 y_13_9 - 23 y_15_9 - 18 y_16_9 - 14 y_17_9 - y_18_9
   - 19 y_19_9 - 16 y_20_9 - 15 y_21_9 - 3 y_22_9 - 5 y_23_9 - 24 y_24_9
   - 10 y_25_9 - 20 y_26_9 - 15 y_27_9 - 17 y_28_9 - 13 y_29_9 - 17 y_30_9
   - 19 y_31_9 - 20 y_32_9 - 7 y_33_9 - 19 y_34_9 - 23 y_35_9 - 20 y_36_9
   - 22 y_37_9 - 18 y_38_9 - 6 y_39_9 - 19 y_40_9 - 17 y_41_9 - 6 y_42_9
   - 21 y_43_9 - 5 y_44_9 - 16 y_45_9 - 22 y_46_9 - 18 y_47_9 - 13 y_48_9
   - 25 y_49_9 - 15 y_50_9 + x_9_0 >= 0
 c11: 188 x_10 - y_1_10 - 16 y_2_10 - 5 y_3_10 - 20 y_4_10 - 10 y_5_10
   - 24 y_6_10 - 3 y_7_10 - 3 y_8_10 - 5 y_9_10 - 13 y_10_10 - 14 y_11_10
   - 10 y_12_10 - 14 y_13_10 - 23 y_14_10 - 13 y_15_10 - 13 y_16_10
   - 7 y_17_10 - 7 y_18_10 - 13 y_19_10 - 16 y_20_10 - 17 y_21_10
   - 22 y_22_10 - 23 y_23_10 - 13 y_24_10 - 4 y_25_10 - 23 y_27_10
   - 6 y_28_10 - 9 y_29_10 - 22 y_30_10 - 21 y_31_10 - 22 y_32_10
   - 2 y_33_10 - 23 y_34_10 - 8 y_35_10 - 14 y_36_10 - 12 y_37_10
   - 15 y_38_10 - 3 y_39_10 - 7 y_40_10 - 10 y_41_10 - 5 y_42_10
   - 11 y_43_10 - 6 y_44_10 - 20 y_45_10 - 20 y_46_10 - 22 y_47_10
   - 24 y_48_10 - 6 y_49_10 - 10 y_50_10 + x_10_0 >= 0
 c12: y_1_1 + y_1_2 + y_1_3 + y_1_4 + y_1_5 + y_1_6 + y_1_7 + y_1_8 + y_1_9
   + y_1_10 = 1
 c13: y_2_1 + y_2_2 + y_2_3 + y_2_4 + y_2_5 + y_2_6 + y_2_7 + y_2_8 + y_2_9
   + y_2_10 = 1
 c14: y_3_1 + y_3_2 + y_3_3 + y_3_4 + y_3_5 + y_3_6 + y_3_7 + y_3_8 + y_3_9
   + y_3_10 = 1
 c15: y_4_1 + y_4_2 + y_4_3 + y_4_4 + y_4_5 + y_4_6 + y_4_7 + y_4_8 + y_4_9
   + y_4_10 = 1
 c16: y_5_1 + y_5_2 + y_5_3 + y_5_4 + y_5_5 + y_5_6 + y_5_7 + y_5_8 + y_5_9
   + y_5_10 = 1
 c17: y_6_1 + y_6_2 + y_6_3 + y_6_4 + y_6_5 + y_6_6 + y_6_7 + y_6_8 + y_6_9
   + y_6_10 = 1
 c18: y_7_1 + y_7_2 + y_7_3 + y_7_4 + y_7_5 + y_7_6 + y_7_7 + y_7_8 + y_7_9
   + y_7_10 = 1
 c19: y_8_1 + y_8_2 + y_8_3 + y_8_4 + y_8_5 + y_8_6 + y_8_7 + y_8_8 + y_8_9
   + y_8_10 = 1
 c20: y_9_1 + y_9_2 + y_9_3 + y_9_4 + y_9_5 + y_9_6 + y_9_7 + y_9_8 + y_9_9
   + y_9_10 = 1
 c21: y_10_1 + y_10_2 + y_10_3 + y_10_4 + y_10_5 + y_10_6 + y_10_7 + y_10_8
   + y_10_9 + y_10_10 = 1
 c22: y_11_1 + y_11_2 + y_11_3 + y_11_4 + y_11_5 + y_11_6 + y_11_7 + y_11_8
   + y_11_9 + y_11_10 = 1
 c23: y_12_1 + y_12_2 + y_12_3 + y_12_4 + y_12_5 + y_12_6 + y_12_7 + y_12_8
   + y_12_9 + y_12_10 = 1
 c24: y_13_1 + y_13_2 + y_13_3 + y_13_4 + y_13_5 + y_13_6 + y_13_7 + y_13_8
   + y_13_9 + y_13_10 = 1
 c25: y_14_1 + y_14_2 + y_14_3 + y_14_4 + y_14_5 + y_14_6 + y_14_7 + y_14_8
   + y_14_9 + y_14_10 = 1
 c26: y_15_1 + y_15_2 + y_15_3 + y_15_4 + y_15_5 + y_15_6 + y_15_7 + y_15_8
   + y_15_9 + y_15_10 = 1
 c27: y_16_1 + y_16_2 + y_16_3 + y_16_4 + y_16_5 + y_16_6 + y_16_7 + y_16_8
   + y_16_9 + y_16_10 = 1
 c28: y_17_1 + y_17_2 + y_17_3 + y_17_4 + y_17_5 + y_17_6 + y_17_7 + y_17_8
   + y_17_9 + y_17_10 = 1
 c29: y_18_1 + y_18_2 + y_18_3 + y_18_4 + y_18_5 + y_18_6 + y_18_7 + y_18_8
   + y_18_9 + y_18_10 = 1
 c30: y_19_1 + y_19_2 + y_19_3 + y_19_4 + y_19_5 + y_19_6 + y_19_7 + y_19_8
   + y_19_9 + y_19_10 = 1
 c31: y_20_1 + y_20_2 + y_20_3 + y_20_4 + y_20_5 + y_20_6 + y_20_7 + y_20_8
   + y_20_9 + y_20_10 = 1
 c32: y_21_1 + y_21_2 + y_21_3 + y_21_4 + y_21_5 + y_21_6 + y_21_7 + y_21_8
   + y_21_9 + y_21_10 = 1
 c33: y_22_1 + y_22_2 + y_22_3 + y_22_4 + y_22_5 + y_22_6 + y_22_7 + y_22_8
   + y_22_9 + y_22_10 = 1
 c34: y_23_1 + y_23_2 + y_23_3 + y_23_4 + y_23_5 + y_23_6 + y_23_7 + y_23_8
   + y_23_9 + y_23_10 = 1
 c35: y_24_1 + y_24_2 + y_24_3 + y_24_4 + y_24_5 + y_24_6 + y_24_7 + y_24_8
   + y_24_9 + y_24_10 = 1
 c36: y_25_1 + y_25_2 + y_25_3 + y_25_4 + y_25_5 + y_25_6 + y_25_7 + y_25_8
   + y_25_9 + y_25_10 = 1
 c37: y_26_1 + y_26_2 + y_26_3 + y_26_4 + y_26_5 + y_26_6 + y_26_7 + y_26_8
   + y_26_9 + y_26_10 = 1
 c38: y_27_1 + y_27_2 + y_27_3 + y_27_4 + y_27_5 + y_27_6 + y_27_7 + y_27_8
   + y_27_9 + y_27_10 = 1
 c39: y_28_1 + y_28_2 + y_28_3 + y_28_4 + y_28_5 + y_28_6 + y_28_7 + y_28_8
   + y_28_9 + y_28_10 = 1
 c40: y_29_1 + y_29_2 + y_29_3 + y_29_4 + y_29_5 + y_29_6 + y_29_7 + y_29_8
   + y_29_9 + y_29_10 = 1
 c41: y_30_1 + y_30_2 + y_30_3 + y_30_4 + y_30_5 + y_30_6 + y_30_7 + y_30_8
   + y_30_9 + y_30_10 = 1
 c42: y_31_1 + y_31_2 + y_31_3 + y_31_4 + y_31_5 + y_31_6 + y_31_7 + y_31_8
   + y_31_9 + y_31_10 = 1
 c43: y_32_1 + y_32_2 + y_32_3 + y_32_4 + y_32_5 + y_32_6 + y_32_7 + y_32_8
   + y_32_9 + y_32_10 = 1
 c44: y_33_1 + y_33_2 + y_33_3 + y_33_4 + y_33_5 + y_33_6 + y_33_7 + y_33_8
   + y_33_9 + y_33_10 = 1
 c45: y_34_1 + y_34_2 + y_34_3 + y_34_4 + y_34_5 + y_34_6 + y_34_7 + y_34_8
   + y_34_9 + y_34_10 = 1
 c46: y_35_1 + y_35_2 + y_35_3 + y_35_4 + y_35_5 + y_35_6 + y_35_7 + y_35_8
   + y_35_9 + y_35_10 = 1
 c47: y_36_1 + y_36_2 + y_36_3 + y_36_4 + y_36_5 + y_36_6 + y_36_7 + y_36_8
   + y_36_9 + y_36_10 = 1
 c48: y_37_1 + y_37_2 + y_37_3 + y_37_4 + y_37_5 + y_37_6 + y_37_7 + y_37_8
   + y_37_9 + y_37_10 = 1
 c49: y_38_1 + y_38_2 + y_38_3 + y_38_4 + y_38_5 + y_38_6 + y_38_7 + y_38_8
   + y_38_9 + y_38_10 = 1
 c50: y_39_1 + y_39_2 + y_39_3 + y_39_4 + y_39_5 + y_39_6 + y_39_7 + y_39_8
   + y_39_9 + y_39_10 = 1
 c51: y_40_1 + y_40_2 + y_40_3 + y_40_4 + y_40_5 + y_40_6 + y_40_7 + y_40_8
   + y_40_9 + y_40_10 = 1
 c52: y_41_1 + y_41_2 + y_41_3 + y_41_4 + y_41_5 + y_41_6 + y_41_7 + y_41_8
   + y_41_9 + y_41_10 = 1
 c53: y_42_1 + y_42_2 + y_42_3 + y_42_4 + y_42_5 + y_42_6 + y_42_7 + y_42_8
   + y_42_9 + y_42_10 = 1
 c54: y_43_1 + y_43_2 + y_43_3 + y_43_4 + y_43_5 + y_43_6 + y_43_7 + y_43_8
   + y_43_9 + y_43_10 = 1
 c55: y_44_1 + y_44_2 + y_44_3 + y_44_4 + y_44_5 + y_44_6 + y_44_7 + y_44_8
   + y_44_9 + y_44_10 = 1
 c56: y_45_1 + y_45_2 + y_45_3 + y_45_4 + y_45_5 + y_45_6 + y_45_7 + y_45_8
   + y_45_9 + y_45_10 = 1
 c57: y_46_1 + y_46_2 + y_46_3 + y_46_4 + y_46_5 + y_46_6 + y_46_7 + y_46_8
   + y_46_9 + y_46_10 = 1
 c58: y_47_1 + y_47_2 + y_47_3 + y_47_4 + y_47_5 + y_47_6 + y_47_7 + y_47_8
   + y_47_9 + y_47_10 = 1
 c59: y_48_1 + y_48_2 + y_48_3 + y_48_4 + y_48_5 + y_48_6 + y_48_7 + y_48_8
   + y_48_9 + y_48_10 = 1
 c60: y_49_1 + y_49_2 + y_49_3 + y_49_4 + y_49_5 + y_49_6 + y_49_7 + y_49_8
   + y_49_9 + y_49_10 = 1
 c61: y_50_1 + y_50_2 + y_50_3 + y_50_4 + y_50_5 + y_50_6 + y_50_7 + y_50_8
   + y_50_9 + y_50_10 = 1
Bounds
 x_1 <= 1
 x_2 <= 1
 x_3 <= 1
 x_4 <= 1
 x_5 <= 1
 x_6 <= 1
 x_7 <= 1
 x_8 <= 1
 x_9 <= 1
 x_10 <= 1
 y_1_1 <= 1
 y_1_2 <= 1
 y_1_3 <= 1
 y_1_4 <= 1
 y_1_5 <= 1
 y_1_6 <= 1
 y_1_7 <= 1
 y_1_8 <= 1
 y_1_9 <= 1
 y_1_10 <= 1
 y_2_1 <= 1
 y_2_2 <= 1
 y_2_3 <= 1
 y_2_4 <= 1
 y_2_5 <= 1
 y_2_6 <= 1
 y_2_7 <= 1
 y_2_8 <= 1
 y_2_9 <= 1
 y_2_10 <= 1
 y_3_1 <= 1
 y_3_2 <= 1
 y_3_3 <= 1
 y_3_4 <= 1
 y_3_5 <= 1
 y_3_6 <= 1
 y_3_7 <= 1
 y_3_8 <= 1
 y_3_9 <= 1
 y_3_10 <= 1
 y_4_1 <= 1
 y_4_2 <= 1
 y_4_3 <= 1
 y_4_4 <= 1
 y_4_5 <= 1
 y_4_6 <= 1
 y_4_7 <= 1
 y_4_8 <= 1
 y_4_9 <= 1
 y_4_10 <= 1
 y_5_1 <= 1
 y_5_2 <= 1
 y_5_3 <= 1
 y_5_4 <= 1
 y_5_5 <= 1
 y_5_6 <= 1
 y_5_7 <= 1
 y_5_8 <= 1
 y_5_9 <= 1
 y_5_10 <= 1
 y_6_1 <= 1
 y_6_2 <= 1
 y_6_3 <= 1
 y_6_4 <= 1
 y_6_5 <= 1
 y_6_6 <= 1
 y_6_7 <= 1
 y_6_8 <= 1
 y_6_9 <= 1
 y_6_10 <= 1
 y_7_1 <= 1
 y_7_2 <= 1
 y_7_3 <= 1
 y_7_4 <= 1
 y_7_5 <= 1
 y_7_6 <= 1
 y_7_7 <= 1
 y_7_8 <= 1
 y_7_9 <= 1
 y_7_10 <= 1
 y_8_1 <= 1
 y_8_2 <= 1
 y_8_3 <= 1
 y_8_4 <= 1
 y_8_5 <= 1
 y_8_6 <= 1
 y_8_7 <= 1
 y_8_8 <= 1
 y_8_9 <= 1
 y_8_10 <= 1
 y_9_1 <= 1
 y_9_2 <= 1
 y_9_3 <= 1
 y_9_4 <= 1
 y_9_5 <= 1
 y_9_6 <= 1
 y_9_7 <= 1
 y_9_8 <= 1
 y_9_9 <= 1
 y_9_10 <= 1
 y_10_1 <= 1
 y_10_2 <= 1
 y_10_3 <= 1
 y_10_4 <= 1
 y_10_5 <= 1
 y_10_6 <= 1
 y_10_7 <= 1
 y_10_8 <= 1
 y_10_9 <= 1
 y_10_10 <= 1
 y_11_1 <= 1
 y_11_2 <= 1
 y_11_3 <= 1
 y_11_4 <= 1
 y_11_5 <= 1
 y_11_6 <= 1
 y_11_7 <= 1
 y_11_8 <= 1
 y_11_9 <= 1
 y_11_10 <= 1
 y_12_1 <= 1
 y_12_2 <= 1
 y_12_3 <= 1
 y_12_4 <= 1
 y_12_5 <= 1
 y_12_6 <= 1
 y_12_7 <= 1
 y_12_8 <= 1
 y_12_9 <= 1
 y_12_10 <= 1
 y_13_1 <= 1
 y_13_2 <= 1
 y_13_3 <= 1
 y_13_4 <= 1
 y_13_5 <= 1
 y_13_6 <= 1
 y_13_7 <= 1
 y_13_8 <= 1
 y_13_9 <= 1
 y_13_10 <= 1
 y_14_1 <= 1
 y_14_2 <= 1
 y_14_3 <= 1
 y_14_4 <= 1
 y_14_5 <= 1
 y_14_6 <= 1
 y_14_7 <= 1
 y_14_8 <= 1
 y_14_9 <= 1
 y_14_10 <= 1
 y_15_1 <= 1
 y_15_2 <= 1
 y_15_3 <= 1
 y_15_4 <= 1
 y_15_5 <= 1
 y_15_6 <= 1
 y_15_7 <= 1
 y_15_8 <= 1
 y_15_9 <= 1
 y_15_10 <= 1
 y_16_1 <= 1
 y_16_2 <= 1
 y_16_3 <= 1
 y_16_4 <= 1
 y_16_5 <= 1
 y_16_6 <= 1
 y_16_7 <= 1
 y_16_8 <= 1
 y_16_9 <= 1
 y_16_10 <= 1
 y_17_1 <= 1
 y_17_2 <= 1
 y_17_3 <= 1
 y_17_4 <= 1
 y_17_5 <= 1
 y_17_6 <= 1
 y_17_7 <= 1
 y_17_8 <= 1
 y_17_9 <= 1
 y_17_10 <= 1
 y_18_1 <= 1
 y_18_2 <= 1
 y_18_3 <= 1
 y_18_4 <= 1
 y_18_5 <= 1
 y_18_6 <= 1
 y_18_7 <= 1
 y_18_8 <= 1
 y_18_9 <= 1
 y_18_10 <= 1
 y_19_1 <= 1
 y_19_2 <= 1
 y_19_3 <= 1
 y_19_4 <= 1
 y_19_5 <= 1
 y_19_6 <= 1
 y_19_7 <= 1
 y_19_8 <= 1
 y_19_9 <= 1
 y_19_10 <= 1
 y_20_1 <= 1
 y_20_2 <= 1
 y_20_3 <= 1
 y_20_4 <= 1
 y_20_5 <= 1
 y_20_6 <= 1
 y_20_7 <= 1
 y_20_8 <= 1
 y_20_9 <= 1
 y_20_10 <= 1
 y_21_1 <= 1
 y_21_2 <= 1
 y_21_3 <= 1
 y_21_4 <= 1
 y_21_5 <= 1
 y_21_6 <= 1
 y_21_7 <= 1
 y_21_8 <= 1
 y_21_9 <= 1
 y_21_10 <= 1
 y_22_1 <= 1
 y_22_2 <= 1
 y_22_3 <= 1
 y_22_4 <= 1
 y_22_5 <= 1
 y_22_6 <= 1
 y_22_7 <= 1
 y_22_8 <= 1
 y_22_9 <= 1
 y_22_10 <= 1
 y_23_1 <= 1
 y_23_2 <= 1
 y_23_3 <= 1
 y_23_4 <= 1
 y_23_5 <= 1
 y_23_6 <= 1
 y_23_7 <= 1
 y_23_8 <= 1
 y_23_9 <= 1
 y_23_10 <= 1
 y_24_1 <= 1
 y_24_2 <= 1
 y_24_3 <= 1
 y_24_4 <= 1
 y_24_5 <= 1
 y_24_6 <= 1
 y_24_7 <= 1
 y_24_8 <= 1
 y_24_9 <= 1
 y_24_10 <= 1
 y_25_1 <= 1
 y_25_2 <= 1
 y_25_3 <= 1
 y_25_4 <= 1
 y_25_5 <= 1
 y_25_6 <= 1
 y_25_7 <= 1
 y_25_8 <= 1
 y_25_9 <= 1
 y_25_10 <= 1
 y_26_1 <= 1
 y_26_2 <= 1
 y_26_3 <= 1
 y_26_4 <= 1
 y_26_5 <= 1
 y_26_6 <= 1
 y_26_7 <= 1
 y_26_8 <= 1
 y_26_9 <= 1
 y_26_10 <= 1
 y_27_1 <= 1
 y_27_2 <= 1
 y_27_3 <= 1
 y_27_4 <= 1
 y_27_5 <= 1
 y_27_6 <= 1
 y_27_7 <= 1
 y_27_8 <= 1
 y_27_9 <= 1
 y_27_10 <= 1
 y_28_1 <= 1
 y_28_2 <= 1
 y_28_3 <= 1
 y_28_4 <= 1
 y_28_5 <= 1
 y_28_6 <= 1
 y_28_7 <= 1
 y_28_8 <= 1
 y_28_9 <= 1
 y_28_10 <= 1
 y_29_1 <= 1
 y_29_2 <= 1
 y_29_3 <= 1
 y_29_4 <= 1
 y_29_5 <= 1
 y_29_6 <= 1
 y_29_7 <= 1
 y_29_8 <= 1
 y_29_9 <= 1
 y_29_10 <= 1
 y_30_1 <= 1
 y_30_2 <= 1
 y_30_3 <= 1
 y_30_4 <= 1
 y_30_5 <= 1
 y_30_6 <= 1
 y_30_7 <= 1
 y_30_8 <= 1
 y_30_9 <= 1
 y_30_10 <= 1
 y_31_1 <= 1
 y_31_2 <= 1
 y_31_3 <= 1
 y_31_4 <= 1
 y_31_5 <= 1
 y_31_6 <= 1
 y_31_7 <= 1
 y_31_8 <= 1
 y_31_9 <= 1
 y_31_10 <= 1
 y_32_1 <= 1
 y_32_2 <= 1
 y_32_3 <= 1
 y_32_4 <= 1
 y_32_5 <= 1
 y_32_6 <= 1
 y_32_7 <= 1
 y_32_8 <= 1
 y_32_9 <= 1
 y_32_10 <= 1
 y_33_1 <= 1
 y_33_2 <= 1
 y_33_3 <= 1
 y_33_4 <= 1
 y_33_5 <= 1
 y_33_6 <= 1
 y_33_7 <= 1
 y_33_8 <= 1
 y_33_9 <= 1
 y_33_10 <= 1
 y_34_1 <= 1
 y_34_2 <= 1
 y_34_3 <= 1
 y_34_4 <= 1
 y_34_5 <= 1
 y_34_6 <= 1
 y_34_7 <= 1
 y_34_8 <= 1
 y_34_9 <= 1
 y_34_10 <= 1
 y_35_1 <= 1
 y_35_2 <= 1
 y_35_3 <= 1
 y_35_4 <= 1
 y_35_5 <= 1
 y_35_6 <= 1
 y_35_7 <= 1
 y_35_8 <= 1
 y_35_9 <= 1
 y_35_10 <= 1
 y_36_1 <= 1
 y_36_2 <= 1
 y_36_3 <= 1
 y_36_4 <= 1
 y_36_5 <= 1
 y_36_6 <= 1
 y_36_7 <= 1
 y_36_8 <= 1
 y_36_9 <= 1
 y_36_10 <= 1
 y_37_1 <= 1
 y_37_2 <= 1
 y_37_3 <= 1
 y_37_4 <= 1
 y_37_5 <= 1
 y_37_6 <= 1
 y_37_7 <= 1
 y_37_8 <= 1
 y_37_9 <= 1
 y_37_10 <= 1
 y_38_1 <= 1
 y_38_2 <= 1
 y_38_3 <= 1
 y_38_4 <= 1
 y_38_5 <= 1
 y_38_6 <= 1
 y_38_7 <= 1
 y_38_8 <= 1
 y_38_9 <= 1
 y_38_10 <= 1
 y_39_1 <= 1
 y_39_2 <= 1
 y_39_3 <= 1
 y_39_4 <= 1
 y_39_5 <= 1
 y_39_6 <= 1
 y_39_7 <= 1
 y_39_8 <= 1
 y_39_9 <= 1
 y_39_10 <= 1
 y_40_1 <= 1
 y_40_2 <= 1
 y_40_3 <= 1
 y_40_4 <= 1
 y_40_5 <= 1
 y_40_6 <= 1
 y_40_7 <= 1
 y_40_8 <= 1
 y_40_9 <= 1
 y_40_10 <= 1
 y_41_1 <= 1
 y_41_2 <= 1
 y_41_3 <= 1
 y_41_4 <= 1
 y_41_5 <= 1
 y_41_6 <= 1
 y_41_7 <= 1
 y_41_8 <= 1
 y_41_9 <= 1
 y_41_10 <= 1
 y_42_1 <= 1
 y_42_2 <= 1
 y_42_3 <= 1
 y_42_4 <= 1
 y_42_5 <= 1
 y_42_6 <= 1
 y_42_7 <= 1
 y_42_8 <= 1
 y_42_9 <= 1
 y_42_10 <= 1
 y_43_1 <= 1
 y_43_2 <= 1
 y_43_3 <= 1
 y_43_4 <= 1
 y_43_5 <= 1
 y_43_6 <= 1
 y_43_7 <= 1
 y_43_8 <= 1
 y_43_9 <= 1
 y_43_10 <= 1
 y_44_1 <= 1
 y_44_2 <= 1
 y_44_3 <= 1
 y_44_4 <= 1
 y_44_5 <= 1
 y_44_6 <= 1
 y_44_7 <= 1
 y_44_8 <= 1
 y_44_9 <= 1
 y_44_10 <= 1
 y_45_1 <= 1
 y_45_2 <= 1
 y_45_3 <= 1
 y_45_4 <= 1
 y_45_5 <= 1
 y_45_6 <= 1
 y_45_7 <= 1
 y_45_8 <= 1
 y_45_9 <= 1
 y_45_10 <= 1
 y_46_1 <= 1
 y_46_2 <= 1
 y_46_3 <= 1
 y_46_4 <= 1
 y_46_5 <= 1
 y_46_6 <= 1
 y_46_7 <= 1
 y_46_8 <= 1
 y_46_9 <= 1
 y_46_10 <= 1
 y_47_1 <= 1
 y_47_2 <= 1
 y_47_3 <= 1
 y_47_4 <= 1
 y_47_5 <= 1
 y_47_6 <= 1
 y_47_7 <= 1
 y_47_8 <= 1
 y_47_9 <= 1
 y_47_10 <= 1
 y_48_1 <= 1
 y_48_2 <= 1
 y_48_3 <= 1
 y_48_4 <= 1
 y_48_5 <= 1
 y_48_6 <= 1
 y_48_7 <= 1
 y_48_8 <= 1
 y_48_9 <= 1
 y_48_10 <= 1
 y_49_1 <= 1
 y_49_2 <= 1
 y_49_3 <= 1
 y_49_4 <= 1
 y_49_5 <= 1
 y_49_6 <= 1
 y_49_7 <= 1
 y_49_8 <= 1
 y_49_9 <= 1
 y_49_10 <= 1
 y_50_1 <= 1
 y_50_2 <= 1
 y_50_3 <= 1
 y_50_4 <= 1
 y_50_5 <= 1
 y_50_6 <= 1
 y_50_7 <= 1
 y_50_8 <= 1
 y_50_9 <= 1
 y_50_10 <= 1
Generals
 x_1 x_2 x_3 x_4 x_5 x_6 x_7 x_8 x_9 x_10 y_1_1 y_1_2 y_1_3 y_1_4 y_1_5
 y_1_6 y_1_7 y_1_8 y_1_9 y_1_10 y_2_1 y_2_2 y_2_3 y_2_4 y_2_5 y_2_6 y_2_7
 y_2_8 y_2_9 y_2_10 y_3_1 y_3_2 y_3_3 y_3_4 y_3_5 y_3_6 y_3_7 y_3_8 y_3_9
 y_3_10 y_4_1 y_4_2 y_4_3 y_4_4 y_4_5 y_4_6 y_4_7 y_4_8 y_4_9 y_4_10 y_5_1
 y_5_2 y_5_3 y_5_4 y_5_5 y_5_6 y_5_7 y_5_8 y_5_9 y_5_10 y_6_1 y_6_2 y_6_3
 y_6_4 y_6_5 y_6_6 y_6_7 y_6_8 y_6_9 y_6_10 y_7_1 y_7_2 y_7_3 y_7_4 y_7_5
 y_7_6 y_7_7 y_7_8 y_7_9 y_7_10 y_8_1 y_8_2 y_8_3 y_8_4 y_8_5 y_8_6 y_8_7
 y_8_8 y_8_9 y_8_10 y_9_1 y_9_2 y_9_3 y_9_4 y_9_5 y_9_6 y_9_7 y_9_8 y_9_9
 y_9_10 y_10_1 y_10_2 y_10_3 y_10_4 y_10_5 y_10_6 y_10_7 y_10_8 y_10_9
 y_10_10 y_11_1 y_11_2 y_11_3 y_11_4 y_11_5 y_11_6 y_11_7 y_11_8 y_11_9
 y_11_10 y_12_1 y_12_2 y_12_3 y_12_4 y_12_5 y_12_6 y_12_7 y_12_8 y_12_9
 y_12_10 y_13_1 y_13_2 y_13_3 y_13_4 y_13_5 y_13_6 y_13_7 y_13_8 y_13_9
 y_13_10 y_14_1 y_14_2 y_14_3 y_14_4 y_14_5 y_14_6 y_14_7 y_14_8 y_14_9
 y_14_10 y_15_1 y_15_2 y_15_3 y_15_4 y_15_5 y_15_6 y_15_7 y_15_8 y_15_9
 y_15_10 y_16_1 y_16_2 y_16_3 y_16_4 y_16_5 y_16_6 y_16_7 y_16_8 y_16_9
 y_16_10 y_17_1 y_17_2 y_17_3 y_17_4 y_17_5 y_17_6 y_17_7 y_17_8 y_17_9
 y_17_10 y_18_1 y_18_2 y_18_3 y_18_4 y_18_5 y_18_6 y_18_7 y_18_8 y_18_9
 y_18_10 y_19_1 y_19_2 y_19_3 y_19_4 y_19_5 y_19_6 y_19_7 y_19_8 y_19_9
 y_19_10 y_20_1 y_20_2 y_20_3 y_20_4 y_20_5 y_20_6 y_20_7 y_20_8 y_20_9
 y_20_10 y_21_1 y_21_2 y_21_3 y_21_4 y_21_5 y_21_6 y_21_7 y_21_8 y_21_9
 y_21_10 y_22_1 y_22_2 y_22_3 y_22_4 y_22_5 y_22_6 y_22_7 y_22_8 y_22_9
 y_22_10 y_23_1 y_23_2 y_23_3 y_23_4 y_23_5 y_23_6 y_23_7 y_23_8 y_23_9
 y_23_10 y_24_1 y_24_2 y_24_3 y_24_4 y_24_5 y_24_6 y_24_7 y_24_8 y_24_9
 y_24_10 y_25_1 y_25_2 y_25_3 y_25_4 y_25_5 y_25_6 y_25_7 y_25_8 y_25_9
 y_25_10 y_26_1 y_26_2 y_26_3 y_26_4 y_26_5 y_26_6 y_26_7 y_26_8 y_26_9
 y_26_10 y_27_1 y_27_2 y_27_3 y_27_4 y_27_5 y_27_6 y_27_7 y_27_8 y_27_9
 y_27_10 y_28_1 y_28_2 y_28_3 y_28_4 y_28_5 y_28_6 y_28_7 y_28_8 y_28_9
 y_28_10 y_29_1 y_29_2 y_29_3 y_29_4 y_29_5 y_29_6 y_29_7 y_29_8 y_29_9
 y_29_10 y_30_1 y_30_2 y_30_3 y_30_4 y_30_5 y_30_6 y_30_7 y_30_8 y_30_9
 y_30_10 y_31_1 y_31_2 y_31_3 y_31_4 y_31_5 y_31_6 y_31_7 y_31_8 y_31_9
 y_31_10 y_32_1 y_32_2 y_32_3 y_32_4 y_32_5 y_32_6 y_32_7 y_32_8 y_32_9
 y_32_10 y_33_1 y_33_2 y_33_3 y_33_4 y_33_5 y_33_6 y_33_7 y_33_8 y_33_9
 y_33_10 y_34_1 y_34_2 y_34_3 y_34_4 y_34_5 y_34_6 y_34_7 y_34_8 y_34_9
 y_34_10 y_35_1 y_35_2 y_35_3 y_35_4 y_35_5 y_35_6 y_35_7 y_35_8 y_35_9
 y_35_10 y_36_1 y_36_2 y_36_3 y_36_4 y_36_5 y_36_6 y_36_7 y_36_8 y_36_9
 y_36_10 y_37_1 y_37_2 y_37_3 y_37_4 y_37_5 y_37_6 y_37_7 y_37_8 y_37_9
 y_37_10 y_38_1 y_38_2 y_38_3 y_38_4 y_38_5 y_38_6 y_38_7 y_38_8 y_38_9
 y_38_10 y_39_1 y_39_2 y_39_3 y_39_4 y_39_5 y_39_6 y_39_7 y_39_8 y_39_9
 y_39_10 y_40_1 y_40_2 y_40_3 y_40_4 y_40_5 y_40_6 y_40_7 y_40_8 y_40_9
 y_40_10 y_41_1 y_41_2 y_41_3 y_41_4 y_41_5 y_41_6 y_41_7 y_41_8 y_41_9
 y_41_10 y_42_1 y_42_2 y_42_3 y_42_4 y_42_5 y_42_6 y_42_7 y_42_8 y_42_9
 y_42_10 y_43_1 y_43_2 y_43_3 y_43_4 y_43_5 y_43_6 y_43_7 y_43_8 y_43_9
 y_43_10 y_44_1 y_44_2 y_44_3 y_44_4 y_44_5 y_44_6 y_44_7 y_44_8 y_44_9
 y_44_10 y_45_1 y_45_2 y_45_3 y_45_4 y_45_5 y_45_6 y_45_7 y_45_8 y_45_9
 y_45_10 y_46_1 y_46_2 y_46_3 y_46_4 y_46_5 y_46_6 y_46_7 y_46_8 y_46_9
 y_46_10 y_47_1 y_47_2 y_47_3 y_47_4 y_47_5 y_47_6 y_47_7 y_47_8 y_47_9
 y_47_10 y_48_1 y_48_2 y_48_3 y_48_4 y_48_5 y_48_6 y_48_7 y_48_8 y_48_9
 y_48_10 y_49_1 y_49_2 y_49_3 y_49_4 y_49_5 y_49_6 y_49_7 y_49_8 y_49_9
 y_49_10 y_50_1 y_50_2 y_50_3 y_50_4 y_50_5 y_50_6 y_50_7 y_50_8 y_50_9
 y_50_10
End
